260 261 262 263 264 266 265 299 298 297 296 295 294 293 270 267 271 268 269 272 273 274 275 292 291 290 289 288 276 277 278 279 282 281 280 287 286 285 284 283 334 335 336 337 338 339 333 332 331 330 340 341 343 344 345 346 347 348 349 350 351 352 415 416 414 413 417 419 418 410 411 412 356 355 353 354 357 358 359 360 361 362 363 364 399 400 401 402 403 404 405 406 407 408 409 384 383 385 386 382 425 424 423 422 421 420 426 427 428 429 431 430 432 433 434 435 436 437 438 454 455 456 457 458 2 3 4 1 0 5 573 572 6 7 8 9 10 11 14 15 16 17 18 19 20 568 569 570 571 460 459 463 462 461 452 453 499 500 501 451 450 441 440 439 443 444 445 442 449 448 446 447 381 380 379 378 377 314 315 376 375 374 373 372 371 396 395 394 393 391 392 390 389 388 387 397 398 370 369 368 365 342 366 367 327 328 329 326 325 324 323 322 321 320 319 318 317 316 313 312 311 310 309 308 505 307 305 306 304 303 301 302 508 507 506 504 503 502 498 497 496 464 465 466 467 468 469 470 471 472 473 474 567 29 28 27 26 25 24 21 13 12 23 22 31 30 32 33 34 35 36 37 38 40 41 39 42 43 44 47 48 49 50 84 51 52 54 53 55 56 83 82 85 86 81 57 58 59 60 61 63 62 79 80 78 77 76 64 75 74 73 88 87 90 89 93 92 91 46 45 555 556 557 554 553 552 99 98 96 97 94 95 118 119 120 121 122 123 71 72 65 66 67 68 70 69 124 125 126 127 128 129 130 132 133 134 135 136 137 138 139 140 141 151 150 149 152 148 147 142 143 144 146 145 158 157 153 156 159 155 154 160 162 168 163 167 166 164 165 203 204 202 201 200 199 198 205 206 207 208 209 210 211 212 213 214 215 216 217 223 224 222 221 220 218 219 225 226 189 190 191 192 193 194 195 196 197 184 185 183 182 179 181 180 169 171 170 172 175 174 173 544 545 546 547 543 541 542 107 108 109 110 111 112 161 113 131 114 115 116 117 106 105 104 103 102 100 101 551 550 559 558 560 561 562 563 565 566 564 549 548 478 477 479 480 476 475 482 481 483 485 484 536 537 539 538 540 176 177 178 187 188 186 227 228 229 230 231 533 488 534 535 487 486 490 491 492 526 525 493 524 494 495 518 519 520 517 516 509 510 511 512 513 515 514 522 521 523 527 528 529 489 532 531 530 233 232 234 235 236 237 238 246 247 245 239 240 243 244 242 241 248 249 250 251 252 254 253 255 256 257 300 258 259